computational_data/solutions/ER_n40_p020_s3.sol
Optimal - objective value 11.00000000
     11 r_11                        1                       1
     14 r_14                        1                       1
     15 r_15                        1                       1
     31 r_31                        1                       1
     35 r_35                        1                       1
     38 r_38                        1                       1
     57 b_17                        1                       1
     58 b_18                        1                       1
     60 b_20                        1                       1
     62 b_22                        1                       1
     64 b_24                        1                       1
