computational_data/logs/ER_n40_p020_s3.log
Welcome to the CBC MILP Solver 
Version: 2.10.12 
Build Date: Aug 20 2024 

command line - /opt/homebrew/bin/cbc computational_data/lp/ER_n40_p020_s3.lp seconds 10.0 solve solu computational_data/solutions/ER_n40_p020_s3.sol (default strategy 1)
seconds was changed from 1e+100 to 10
Continuous objective value is 8.5089 - 0.00 seconds
Cgl0003I 0 fixed, 0 tightened bounds, 122 strengthened rows, 0 substitutions
Cgl0003I 0 fixed, 0 tightened bounds, 110 strengthened rows, 0 substitutions
Cgl0003I 0 fixed, 0 tightened bounds, 51 strengthened rows, 0 substitutions
Cgl0003I 0 fixed, 0 tightened bounds, 12 strengthened rows, 0 substitutions
Cgl0003I 0 fixed, 0 tightened bounds, 5 strengthened rows, 0 substitutions
Cgl0004I processed model has 317 rows, 80 columns (80 integer (80 of which binary)) and 1497 elements
Cutoff increment increased from 1e-05 to 0.9999
Cbc0038I Initial state - 46 integers unsatisfied sum - 8.5089
Cbc0038I Pass   1: suminf.    8.51509 (46) obj. 8.51509 iterations 10
Cbc0038I Pass   2: suminf.    7.63009 (32) obj. 9.88401 iterations 55
Cbc0038I Pass   3: suminf.    5.78261 (35) obj. 11.2609 iterations 65
Cbc0038I Pass   4: suminf.    5.51724 (35) obj. 11.7241 iterations 25
Cbc0038I Pass   5: suminf.    0.00000 (0) obj. 18 iterations 94
Cbc0038I Solution found of 18
Cbc0038I Before mini branch and bound, 16 integers at bound fixed and 0 continuous
Cbc0038I Full problem 317 rows 80 columns, reduced to 279 rows 64 columns - 8 fixed gives 21, 10 - ok now
Cbc0038I Full problem 317 rows 80 columns, reduced to 7 rows 5 columns
Cbc0038I Mini branch and bound improved solution from 18 to 17 (0.02 seconds)
Cbc0038I Round again with cutoff of 15.251
Cbc0038I Pass   6: suminf.    8.51509 (46) obj. 8.51509 iterations 0
Cbc0038I Pass   7: suminf.    7.60000 (24) obj. 10.2 iterations 75
Cbc0038I Pass   8: suminf.    5.61343 (36) obj. 11.5532 iterations 46
Cbc0038I Pass   9: suminf.    3.55512 (18) obj. 15.251 iterations 86
Cbc0038I Pass  10: suminf.    1.64784 (13) obj. 15.251 iterations 45
Cbc0038I Pass  11: suminf.    1.49804 (4) obj. 15.251 iterations 30
Cbc0038I Solution found of 14
Cbc0038I Before mini branch and bound, 20 integers at bound fixed and 0 continuous
Cbc0038I Full problem 317 rows 80 columns, reduced to 259 rows 60 columns - 2 fixed gives 172, 46 - still too large
Cbc0038I Full problem 317 rows 80 columns, reduced to 172 rows 46 columns - too large
Cbc0038I Mini branch and bound did not improve solution (0.03 seconds)
Cbc0038I Round again with cutoff of 12.1019
Cbc0038I Pass  12: suminf.    8.51509 (46) obj. 8.51509 iterations 0
Cbc0038I Pass  13: suminf.   10.50000 (27) obj. 12.1019 iterations 82
Cbc0038I Pass  14: suminf.    5.48223 (29) obj. 12.1019 iterations 51
Cbc0038I Pass  15: suminf.    5.19151 (28) obj. 12.1019 iterations 68
Cbc0038I Pass  16: suminf.    3.01132 (24) obj. 12.1019 iterations 74
Cbc0038I Pass  17: suminf.    2.89814 (9) obj. 12.1019 iterations 41
Cbc0038I Pass  18: suminf.    3.79628 (21) obj. 12.1019 iterations 73
Cbc0038I Pass  19: suminf.    3.23147 (17) obj. 12.1019 iterations 22
Cbc0038I Pass  20: suminf.    4.17391 (26) obj. 12.087 iterations 73
Cbc0038I Pass  21: suminf.    3.91170 (33) obj. 12.1019 iterations 20
Cbc0038I Pass  22: suminf.    3.40024 (22) obj. 12.1019 iterations 17
Cbc0038I Pass  23: suminf.    8.40130 (32) obj. 12.1019 iterations 93
Cbc0038I Pass  24: suminf.    7.03131 (35) obj. 12.1019 iterations 41
Cbc0038I Pass  25: suminf.    9.17878 (33) obj. 12.1019 iterations 85
Cbc0038I Pass  26: suminf.    3.92308 (16) obj. 11.9231 iterations 51
Cbc0038I Pass  27: suminf.    3.13271 (14) obj. 12.1019 iterations 56
Cbc0038I Pass  28: suminf.    5.69442 (14) obj. 12.1019 iterations 51
Cbc0038I Pass  29: suminf.    4.05053 (25) obj. 12.1019 iterations 52
Cbc0038I Pass  30: suminf.    9.30186 (32) obj. 12.1019 iterations 74
Cbc0038I Pass  31: suminf.    6.73389 (33) obj. 12.1019 iterations 46
Cbc0038I Pass  32: suminf.    0.00000 (0) obj. 12 iterations 79
Cbc0038I Solution found of 12
Cbc0038I Before mini branch and bound, 2 integers at bound fixed and 0 continuous
Cbc0038I Full problem 317 rows 80 columns, reduced to 314 rows 78 columns - 1 fixed gives 263, 68 - still too large
Cbc0038I Mini branch and bound did not improve solution (0.06 seconds)
Cbc0038I Round again with cutoff of 10.2527
Cbc0038I Pass  33: suminf.    8.51509 (46) obj. 8.51509 iterations 0
Cbc0038I Pass  34: suminf.    7.63009 (32) obj. 9.88401 iterations 76
Cbc0038I Pass  35: suminf.    6.33860 (37) obj. 10.2527 iterations 40
Cbc0038I Pass  36: suminf.    6.18404 (35) obj. 10.2527 iterations 22
Cbc0038I Pass  37: suminf.    8.68855 (35) obj. 10.2527 iterations 62
Cbc0038I Pass  38: suminf.    5.19016 (26) obj. 10.2527 iterations 58
Cbc0038I Pass  39: suminf.    4.36134 (30) obj. 10.2527 iterations 32
Cbc0038I Pass  40: suminf.    3.28855 (34) obj. 10.2527 iterations 39
Cbc0038I Pass  41: suminf.    2.98299 (32) obj. 10.2527 iterations 20
Cbc0038I Pass  42: suminf.    8.74726 (41) obj. 10.2527 iterations 73
Cbc0038I Pass  43: suminf.    7.59699 (39) obj. 10.2527 iterations 48
Cbc0038I Pass  44: suminf.    7.80858 (31) obj. 10.2527 iterations 48
Cbc0038I Pass  45: suminf.    5.83393 (33) obj. 10.2527 iterations 47
Cbc0038I Pass  46: suminf.    4.36096 (28) obj. 10.2527 iterations 42
Cbc0038I Pass  47: suminf.    7.81508 (36) obj. 10.2527 iterations 87
Cbc0038I Pass  48: suminf.    6.53196 (38) obj. 10.2527 iterations 46
Cbc0038I Pass  49: suminf.    6.28135 (32) obj. 10.2527 iterations 17
Cbc0038I Pass  50: suminf.    9.04585 (37) obj. 10.2527 iterations 61
Cbc0038I Pass  51: suminf.    7.04296 (36) obj. 10.2527 iterations 33
Cbc0038I Pass  52: suminf.    6.20511 (37) obj. 10.2527 iterations 35
Cbc0038I Pass  53: suminf.    6.98279 (28) obj. 10.2527 iterations 34
Cbc0038I Pass  54: suminf.    5.88885 (35) obj. 10.2527 iterations 43
Cbc0038I Pass  55: suminf.    7.82534 (31) obj. 10.2527 iterations 65
Cbc0038I Pass  56: suminf.    5.77954 (35) obj. 10.2527 iterations 37
Cbc0038I Pass  57: suminf.    5.49951 (35) obj. 10.2527 iterations 17
Cbc0038I Pass  58: suminf.    6.71765 (34) obj. 10.2527 iterations 53
Cbc0038I Pass  59: suminf.    5.45930 (37) obj. 10.2527 iterations 66
Cbc0038I Pass  60: suminf.    7.85143 (25) obj. 10.2527 iterations 66
Cbc0038I Pass  61: suminf.    6.25262 (32) obj. 10.2527 iterations 40
Cbc0038I Pass  62: suminf.    5.35340 (29) obj. 10.2527 iterations 26
Cbc0038I No solution found this major pass
Cbc0038I Before mini branch and bound, 2 integers at bound fixed and 0 continuous
Cbc0038I Full problem 317 rows 80 columns, reduced to 313 rows 78 columns - 1 fixed gives 264, 68 - still too large
Cbc0038I Mini branch and bound did not improve solution (0.09 seconds)
Cbc0038I After 0.09 seconds - Feasibility pump exiting with objective of 12 - took 0.08 seconds
Cbc0012I Integer solution of 12 found by feasibility pump after 0 iterations and 0 nodes (0.09 seconds)
Cbc0038I Full problem 317 rows 80 columns, reduced to 228 rows 50 columns - 1 fixed gives 183, 44 - still too large
Cbc0038I Full problem 317 rows 80 columns, reduced to 183 rows 44 columns - too large
Cbc0031I 11 added rows had average density of 80
Cbc0013I At root node, 11 cuts changed objective from 8.5089017 to 8.6986051 in 100 passes
Cbc0014I Cut generator 0 (Probing) - 0 row cuts average 0.0 elements, 0 column cuts (0 active)  in 0.034 seconds - new frequency is -100
Cbc0014I Cut generator 1 (Gomory) - 894 row cuts average 80.0 elements, 0 column cuts (0 active)  in 0.051 seconds - new frequency is -100
Cbc0014I Cut generator 2 (Knapsack) - 0 row cuts average 0.0 elements, 0 column cuts (0 active)  in 0.005 seconds - new frequency is -100
Cbc0014I Cut generator 3 (Clique) - 1 row cuts average 3.0 elements, 0 column cuts (0 active)  in 0.010 seconds - new frequency is -100
Cbc0014I Cut generator 4 (MixedIntegerRounding2) - 0 row cuts average 0.0 elements, 0 column cuts (0 active)  in 0.030 seconds - new frequency is -100
Cbc0014I Cut generator 5 (FlowCover) - 0 row cuts average 0.0 elements, 0 column cuts (0 active)  in 0.001 seconds - new frequency is -100
Cbc0010I After 0 nodes, 1 on tree, 12 best solution, best possible 8.6986051 (0.47 seconds)
Cbc0038I Full problem 317 rows 80 columns, reduced to 161 rows 39 columns - 1 fixed gives 105, 29 - ok now
Cbc0038I Full problem 317 rows 80 columns, reduced to 97 rows 27 columns
Cbc0038I Full problem 317 rows 80 columns, reduced to 149 rows 38 columns
Cbc0012I Integer solution of 11 found by DiveCoefficient after 12046 iterations and 178 nodes (1.21 seconds)
Cbc0001I Search completed - best objective 11, took 12748 iterations and 186 nodes (1.25 seconds)
Cbc0032I Strong branching done 2374 times (56278 iterations), fathomed 34 nodes and fixed 24 variables
Cbc0035I Maximum depth 19, 511 variables fixed on reduced cost
Cuts at root node changed objective from 8.5089 to 8.69861
Probing was tried 100 times and created 0 cuts of which 0 were active after adding rounds of cuts (0.034 seconds)
Gomory was tried 100 times and created 894 cuts of which 0 were active after adding rounds of cuts (0.051 seconds)
Knapsack was tried 100 times and created 0 cuts of which 0 were active after adding rounds of cuts (0.005 seconds)
Clique was tried 100 times and created 1 cuts of which 0 were active after adding rounds of cuts (0.010 seconds)
MixedIntegerRounding2 was tried 100 times and created 0 cuts of which 0 were active after adding rounds of cuts (0.030 seconds)
FlowCover was tried 100 times and created 0 cuts of which 0 were active after adding rounds of cuts (0.001 seconds)
TwoMirCuts was tried 1 times and created 0 cuts of which 0 were active after adding rounds of cuts (0.001 seconds)
ZeroHalf was tried 1 times and created 0 cuts of which 0 were active after adding rounds of cuts (0.001 seconds)

Result - Optimal solution found

Objective value:                11.00000000
Enumerated nodes:               186
Total iterations:               12748
Time (CPU seconds):             1.25
Time (Wallclock seconds):       1.30

Total time (CPU seconds):       1.25   (Wallclock seconds):       1.30

